Gurobi Optimizer version 9.1.2 build v9.1.2rc0 (linux64)
Thread count: 36 physical cores, 72 logical processors, using up to 32 threads
Optimize a model with 12 rows, 57 columns and 590 nonzeros
Model fingerprint: 0xf32eec78
Model has 47 quadratic constraints
Coefficient statistics:
  Matrix range     [2e-05, 3e+00]
  QMatrix range    [1e+00, 1e+00]
  QLMatrix range   [1e+00, 1e+00]
  Objective range  [8e-03, 7e-01]
  Bounds range     [1e+00, 1e+00]
  RHS range        [1e+00, 1e+00]
Presolve removed 9 rows and 0 columns

Continuous model is non-convex -- solving as a MIP.

Presolve removed 9 rows and 0 columns
Presolve time: 0.00s
Presolved: 189 rows, 57 columns, 443 nonzeros
Presolved model has 47 bilinear constraint(s)
Variable types: 57 continuous, 0 integer (0 binary)

Root relaxation: objective -1.743721e+00, 44 iterations, 0.00 seconds

    Nodes    |    Current Node    |     Objective Bounds      |     Work
 Expl Unexpl |  Obj  Depth IntInf | Incumbent    BestBd   Gap | It/Node Time

     0     0   -1.74372    0   38          -   -1.74372      -     -    0s
H    0     0                       0.6147548   -1.74372   384%     -    0s
     0     0   -1.64739    0    1    0.61475   -1.64739   368%     -    0s
H    0     0                      -1.6450460   -1.64739  0.14%     -    0s
     0     0     cutoff    0        -1.64505   -1.64505  0.00%     -    0s

Cutting planes:
  RLT: 25
  BQP: 3

Explored 1 nodes (76 simplex iterations) in 0.01 seconds
Thread count was 32 (of 72 available processors)

Solution count 2: -1.64505 0.614755 
No other solutions better than -1.64505

Optimal solution found (tolerance 1.00e-04)
Best objective -1.645045978473e+00, best bound -1.645045978473e+00, gap 0.0000%

User-callback calls 78, time in user-callback 0.00 sec
Gurobi Optimizer version 9.1.2 build v9.1.2rc0 (linux64)
Thread count: 36 physical cores, 72 logical processors, using up to 32 threads
Optimize a model with 12 rows, 55 columns and 570 nonzeros
Model fingerprint: 0x969a8886
Model has 45 quadratic constraints
Coefficient statistics:
  Matrix range     [1e-04, 1e+00]
  QMatrix range    [1e+00, 1e+00]
  QLMatrix range   [1e+00, 1e+00]
  Objective range  [5e-03, 5e-01]
  Bounds range     [1e+00, 1e+00]
  RHS range        [1e+00, 1e+00]
Presolve removed 9 rows and 0 columns

Continuous model is non-convex -- solving as a MIP.

Presolve removed 9 rows and 0 columns
Presolve time: 0.00s
Presolved: 183 rows, 55 columns, 432 nonzeros
Presolved model has 45 bilinear constraint(s)
Variable types: 55 continuous, 0 integer (0 binary)

Root relaxation: objective -1.537250e+00, 41 iterations, 0.00 seconds

    Nodes    |    Current Node    |     Objective Bounds      |     Work
 Expl Unexpl |  Obj  Depth IntInf | Incumbent    BestBd   Gap | It/Node Time

     0     0   -1.53725    0   28          -   -1.53725      -     -    0s
H    0     0                      -0.8839849   -1.53725  73.9%     -    0s
     0     0   -1.49244    0    3   -0.88398   -1.49244  68.8%     -    0s
H    0     0                      -1.4605043   -1.49244  2.19%     -    0s
     0     0   -1.48456    0    6   -1.46050   -1.48456  1.65%     -    0s
H    0     0                      -1.4815283   -1.48456  0.20%     -    0s
     0     0   -1.48456    0    3   -1.48153   -1.48456  0.20%     -    0s
     0     0   -1.48419    0    6   -1.48153   -1.48419  0.18%     -    0s
H    0     0                      -1.4818035   -1.48419  0.16%     -    0s
     0     0   -1.48415    0    2   -1.48180   -1.48415  0.16%     -    0s
H    0     0                      -1.4841330   -1.48415  0.00%     -    0s

Cutting planes:
  RLT: 10
  BQP: 2

Explored 1 nodes (91 simplex iterations) in 0.02 seconds
Thread count was 32 (of 72 available processors)

Solution count 5: -1.48413 -1.4818 -1.48153 ... -0.883985

Optimal solution found (tolerance 1.00e-04)
Best objective -1.484133029345e+00, best bound -1.484154876395e+00, gap 0.0015%

User-callback calls 96, time in user-callback 0.00 sec



objective value: -1.4841330293447286
objective bound: -1.4841548763952706
x_opt: [1.0, 1.0, 0.0, 0.8431375626048394, 0.0, 0.04133844729419915, 1.0, 1.0, 1.0, 2.1899785110020102e-5]
GUROBI solution time: 0.01622605323791504

